10J3M/DAT/10J3MNLR-4.dat
10 3
15.688 13.2024
25.0244 10.5105
23.6722 48.7059
16.9089 37.2084
26.9192 33.2143
23.3152 33.0323
30.0291 0.9447
25.2557 21.0941
23.9509 13.871
17.5501 10.7396
74.1744