10J3M/SOL/10J3MNLR-4.sol
solution status: optimal solution found
objective value:                     76.1045666666667
x#1#3                                               1 	(obj:0)
x#2#1                                 0.5515721209403 	(obj:0)
x#2#2                                 0.4484278790597 	(obj:0)
x#3#3                                               1 	(obj:0)
x#4#1                              0.0728948630647103 	(obj:0)
x#4#2                                0.92710513693529 	(obj:0)
x#5#1                               0.656749418608925 	(obj:0)
x#5#3                               0.343250581391075 	(obj:0)
x#6#1                                               1 	(obj:0)
x#7#1                              0.0840772578570774 	(obj:0)
x#7#3                               0.915922742142923 	(obj:0)
x#8#2                                               1 	(obj:0)
x#9#2                                               1 	(obj:0)
x#10#1                                              1 	(obj:0)
z                                    76.1045666666667 	(obj:1)
